min: c;

c = 4.42134726470853 * u3_t10_h0 + 3.68375776122237 * u3_t10_h1 + 3.92320684637861 * u3_t4_h2 + 3.92320684637861 * u3_t10_h2 + 3.07072971455386 * u3_t4_h3 + 3.07072971455386 * u3_t10_h3 + 3.40595819883718 * u3_t4_h4 + 3.40595819883718 * u3_t10_h4 + 3.37506203708276 * u3_t4_h5 + 3.37506203708276 * u3_t10_h5 + 4.12545733376753 * u3_t4_h6 + 4.12545733376753 * u3_t10_h6 + 3.59536372648399 * u3_t4_h7 + 3.59536372648399 * u3_t9_h7 + 3.59536372648399 * u3_t10_h7 + 5.13690163626308 * u3_t4_h8 + 5.13690163626308 * u3_t9_h8 + 4.58661517473723 * u3_t4_h9 + 4.58661517473723 * u3_t9_h9 + 5.26733445077691 * u3_t4_h10 + 5.26733445077691 * u3_t6_h10 + 5.26733445077691 * u3_t9_h10 + 3.84707398866641 * u3_t3_h11 + 3.84707398866641 * u3_t4_h11 + 3.84707398866641 * u3_t6_h11 + 3.84707398866641 * u3_t9_h11 + 5.85928754393797 * u3_t3_h12 + 5.85928754393797 * u3_t4_h12 + 5.85928754393797 * u3_t6_h12 + 5.85928754393797 * u3_t9_h12 + 4.89568129894184 * u3_t3_h13 + 4.89568129894184 * u3_t4_h13 + 4.89568129894184 * u3_t5_h13 + 4.89568129894184 * u3_t6_h13 + 4.89568129894184 * u3_t9_h13 + 5.76543726354101 * u3_t3_h14 + 5.76543726354101 * u3_t4_h14 + 5.76543726354101 * u3_t5_h14 + 5.76543726354101 * u3_t6_h14 + 5.76543726354101 * u3_t9_h14 + 6.48367519103213 * u3_t2_h15 + 6.48367519103213 * u3_t3_h15 + 6.48367519103213 * u3_t4_h15 + 6.48367519103213 * u3_t5_h15 + 6.48367519103213 * u3_t6_h15 + 6.48367519103213 * u3_t9_h15 + 5.56485888588049 * u3_t2_h16 + 5.56485888588049 * u3_t4_h16 + 5.56485888588049 * u3_t5_h16 + 5.56485888588049 * u3_t6_h16 + 5.56485888588049 * u3_t9_h16 + 6.58058733293443 * u3_t2_h17 + 6.58058733293443 * u3_t4_h17 + 6.58058733293443 * u3_t6_h17 + 6.58058733293443 * u3_t9_h17 + 6.28484346865736 * u3_t2_h18 + 6.28484346865736 * u3_t6_h18 + 6.28484346865736 * u3_t9_h18 + 5.34122791467953 * u3_t2_h19 + 5.34122791467953 * u3_t9_h19 + 5.93804295345015 * u3_t1_h20 + 5.93804295345015 * u3_t2_h20 + 5.93804295345015 * u3_t8_h20 + 5.93804295345015 * u3_t9_h20 + 5.03538266892905 * u3_t1_h21 + 5.03538266892905 * u3_t2_h21 + 5.03538266892905 * u3_t7_h21 + 5.03538266892905 * u3_t8_h21 + 5.03538266892905 * u3_t9_h21 + 5.40466648400341 * u3_t1_h22 + 5.40466648400341 * u3_t7_h22 + 5.40466648400341 * u3_t8_h22 + 5.0075062515716 * u3_t1_h23 + 5.0075062515716 * u3_t7_h23 + 5.0075062515716 * u3_t8_h23;
0 <= u3_t1_h20 <= 1;
0 <= u3_t1_h21 <= 1;
0 <= u3_t1_h22 <= 1;
0 <= u3_t1_h23 <= 1;
u3_t1_h20 + u3_t1_h21 + u3_t1_h22 + u3_t1_h23 = 2;
0 <= u3_t2_h15 <= 1;
0 <= u3_t2_h16 <= 1;
0 <= u3_t2_h17 <= 1;
0 <= u3_t2_h18 <= 1;
0 <= u3_t2_h19 <= 1;
0 <= u3_t2_h20 <= 1;
0 <= u3_t2_h21 <= 1;
u3_t2_h15 + u3_t2_h16 + u3_t2_h17 + u3_t2_h18 + u3_t2_h19 + u3_t2_h20 + u3_t2_h21 = 3;
0 <= u3_t3_h11 <= 1;
0 <= u3_t3_h12 <= 1;
0 <= u3_t3_h13 <= 1;
0 <= u3_t3_h14 <= 1;
0 <= u3_t3_h15 <= 1;
u3_t3_h11 + u3_t3_h12 + u3_t3_h13 + u3_t3_h14 + u3_t3_h15 = 2;
0 <= u3_t4_h2 <= 1;
0 <= u3_t4_h3 <= 1;
0 <= u3_t4_h4 <= 1;
0 <= u3_t4_h5 <= 1;
0 <= u3_t4_h6 <= 1;
0 <= u3_t4_h7 <= 1;
0 <= u3_t4_h8 <= 1;
0 <= u3_t4_h9 <= 1;
0 <= u3_t4_h10 <= 1;
0 <= u3_t4_h11 <= 1;
0 <= u3_t4_h12 <= 1;
0 <= u3_t4_h13 <= 1;
0 <= u3_t4_h14 <= 1;
0 <= u3_t4_h15 <= 1;
0 <= u3_t4_h16 <= 1;
0 <= u3_t4_h17 <= 1;
u3_t4_h2 + u3_t4_h3 + u3_t4_h4 + u3_t4_h5 + u3_t4_h6 + u3_t4_h7 + u3_t4_h8 + u3_t4_h9 + u3_t4_h10 + u3_t4_h11 + u3_t4_h12 + u3_t4_h13 + u3_t4_h14 + u3_t4_h15 + u3_t4_h16 + u3_t4_h17 = 3;
0 <= u3_t5_h13 <= 1;
0 <= u3_t5_h14 <= 1;
0 <= u3_t5_h15 <= 1;
0 <= u3_t5_h16 <= 1;
u3_t5_h13 + u3_t5_h14 + u3_t5_h15 + u3_t5_h16 = 2;
0 <= u3_t6_h10 <= 1;
0 <= u3_t6_h11 <= 1;
0 <= u3_t6_h12 <= 1;
0 <= u3_t6_h13 <= 1;
0 <= u3_t6_h14 <= 1;
0 <= u3_t6_h15 <= 1;
0 <= u3_t6_h16 <= 1;
0 <= u3_t6_h17 <= 1;
0 <= u3_t6_h18 <= 1;
u3_t6_h10 + u3_t6_h11 + u3_t6_h12 + u3_t6_h13 + u3_t6_h14 + u3_t6_h15 + u3_t6_h16 + u3_t6_h17 + u3_t6_h18 = 2;
0 <= u3_t7_h21 <= 1;
0 <= u3_t7_h22 <= 1;
0 <= u3_t7_h23 <= 1;
u3_t7_h21 + u3_t7_h22 + u3_t7_h23 = 2;
0 <= u3_t8_h20 <= 1;
0 <= u3_t8_h21 <= 1;
0 <= u3_t8_h22 <= 1;
0 <= u3_t8_h23 <= 1;
u3_t8_h20 + u3_t8_h21 + u3_t8_h22 + u3_t8_h23 = 1;
0 <= u3_t9_h7 <= 1;
0 <= u3_t9_h8 <= 1;
0 <= u3_t9_h9 <= 1;
0 <= u3_t9_h10 <= 1;
0 <= u3_t9_h11 <= 1;
0 <= u3_t9_h12 <= 1;
0 <= u3_t9_h13 <= 1;
0 <= u3_t9_h14 <= 1;
0 <= u3_t9_h15 <= 1;
0 <= u3_t9_h16 <= 1;
0 <= u3_t9_h17 <= 1;
0 <= u3_t9_h18 <= 1;
0 <= u3_t9_h19 <= 1;
0 <= u3_t9_h20 <= 1;
0 <= u3_t9_h21 <= 1;
u3_t9_h7 + u3_t9_h8 + u3_t9_h9 + u3_t9_h10 + u3_t9_h11 + u3_t9_h12 + u3_t9_h13 + u3_t9_h14 + u3_t9_h15 + u3_t9_h16 + u3_t9_h17 + u3_t9_h18 + u3_t9_h19 + u3_t9_h20 + u3_t9_h21 = 2;
0 <= u3_t10_h0 <= 1;
0 <= u3_t10_h1 <= 1;
0 <= u3_t10_h2 <= 1;
0 <= u3_t10_h3 <= 1;
0 <= u3_t10_h4 <= 1;
0 <= u3_t10_h5 <= 1;
0 <= u3_t10_h6 <= 1;
0 <= u3_t10_h7 <= 1;
u3_t10_h0 + u3_t10_h1 + u3_t10_h2 + u3_t10_h3 + u3_t10_h4 + u3_t10_h5 + u3_t10_h6 + u3_t10_h7 = 3;
